(declare-fun c () String)
(declare-fun g () String)
(declare-fun b () String)
(declare-fun f () String)
(declare-fun a () String)
(declare-fun h () String)
(assert (= (str.++ "ee" f a c) (str.++ "e" a g)))
(assert (= (str.++ b b) (str.++ "bh" g "d")))
(assert (= (str.++ "c" c "ce") h))

(check-sat)
